120
[12,13,14,15,16,17,18,19,20,21,22,23,24,25,26,27,28,29,30,31,32,33,34,35,36,37,38,39,40,41,42,43,44,45,46,47,48,49,50,51,52,53,54,55,56,57,58,59,60,61,62,63,64,65,66,67,68,69,70,71,72,73,74,75,76,77,78,79,80,81,82,83,84,85,86,87,88,89,90,91,92,93,94,95,96]
[9,13,15,9,19,12,13,9,10,8,11,14,10,9,14,13,19,9,12,11,18,12,14,9,11,8,12,14,12,9,10,12,9,9,13,16,11,9,14,9,10,10,14,16,11,15,6,14,10,18,10,12,10,17,15,9,8,7,11,13,10,8,10,11,11,9,17,15,7,14,8,14,14,8,17,8,16,13,18,11,12,9,14,10,10]
